0 60 
1 60 
2 60 
3 61 
4 61 
5 60 
6 59 
7 58 
8 57 
9 61 
10 61 
11 60 
12 59 
13 57 
14 55 
15 55 
16 53 
17 53 
18 51 
19 52 
20 53 
21 51 
22 49 
23 46 
24 47 
25 47 
26 46 
27 47 
28 48 
29 47 
30 44 
31 42 
32 43 
33 42 
34 43 
35 44 
36 42 
37 39 
38 37 
39 36 
40 33 
41 30 
42 29 
43 27 
44 27 
45 26 
46 25 
47 23 
48 21 
49 22 
50 20 
51 19 
52 18 
53 16 
54 17 
55 16 
56 15 
57 14 
58 14 
59 13 
60 12 
61 12 
62 12 
63 12 
64 11 
65 11 
66 11 
67 9 
68 8 
69 8 
70 6 
71 4 
72 4 
73 4 
74 3 
75 3 
76 3 
77 2 
78 0 
79 0 

